133995
38,2,30,35,28,8,53,4,50,65,63,39,41,52,59,68,44,22,5,19,24,31,48,21,71,66,20,36,26,70,14,62,80,45,46,54,73,13,18,37,64,29,10,1,76,67,83,79,6,61,15,69,25,42,55,23,12,3,57,34,49,43,60,47,81,72,51,78,16,11,40,74,32,58,77,9,75,82,33,27,7,56,17